39 40
29
3 3 26 0
3 4 23 0
3 5 23 4
3 6 20 34
3 7 23 9
3 8 23 16
3 9 15 0
3 10 25 24
3 11 32 29
3 15 26 3
4 3 19 8
4 4 15 18
4 5 15 22
4 6 26 18
4 8 35 32
4 9 15 9
4 12 28 28
4 15 19 12
4 16 35 16
5 3 20 27
5 4 20 30
5 5 34 11
5 6 23 34
5 8 18 0
5 10 30 18
5 11 34 0
5 13 15 27
5 18 29 0
15 39 0 1
